Total weight: 1257.7449555031162
Route 1: 0 80 92 91 65 82 69 98 88 53 99 52 57 83 66 55 68 61 93 71 38 39 41 100 70 0 
Route 2: 0 4 46 45 5 3 1 43 42 44 15 11 9 12 78 79 7 8 6 2 73 14 10 97 59 87 58 75 77 25 0 
Route 3: 0 90 64 95 62 63 85 84 51 19 49 20 22 24 74 86 13 16 17 47 60 0 
Route 4: 0 81 96 54 72 37 36 40 35 0 
Route 5: 0 94 27 33 89 23 21 48 18 76 32 30 28 26 29 31 34 50 67 56 0 
